; Grid counting instance used for --propat tests (expected model count 2227)
(set-logic ALL)
(declare-fun target_0 () Bool)
(declare-fun target_1 () Bool)
(declare-fun target_2 () Bool)
(declare-fun target_3 () Bool)
(declare-fun target_4 () Bool)
(declare-fun target_5 () Bool)
(declare-fun target_6 () Bool)
(declare-fun target_7 () Bool)
(declare-fun target_8 () Bool)
(declare-fun target_9 () Bool)
(declare-fun target_10 () Bool)
(declare-fun target_11 () Bool)
(declare-fun target_12 () Bool)
(declare-fun target_13 () Bool)
(declare-fun target_14 () Bool)
(declare-fun x_0 () Int)
(declare-fun x_1 () Int)
(declare-fun x_2 () Int)
(declare-fun x_3 () Int)
(declare-fun x_4 () Int)
(declare-fun x_5 () Int)
(declare-fun x_6 () Int)
(declare-fun x_7 () Int)
(declare-fun x_8 () Int)
(declare-fun x_9 () Int)
(declare-fun x_10 () Int)
(declare-fun x_11 () Int)
(declare-fun x_12 () Int)
(declare-fun x_13 () Int)
(declare-fun x_14 () Int)
(declare-fun y_0 () Int)
(declare-fun y_1 () Int)
(declare-fun y_2 () Int)
(declare-fun y_3 () Int)
(declare-fun y_4 () Int)
(declare-fun y_5 () Int)
(declare-fun y_6 () Int)
(declare-fun y_7 () Int)
(declare-fun y_8 () Int)
(declare-fun y_9 () Int)
(declare-fun y_10 () Int)
(declare-fun y_11 () Int)
(declare-fun y_12 () Int)
(declare-fun y_13 () Int)
(declare-fun y_14 () Int)
(declare-fun proj-0-1_0 () Bool)
(declare-fun proj-0-0_0 () Bool)
(declare-fun proj-0-1_1 () Bool)
(declare-fun proj-0-0_1 () Bool)
(declare-fun proj-0-1_2 () Bool)
(declare-fun proj-0-0_2 () Bool)
(declare-fun proj-0-1_3 () Bool)
(declare-fun proj-0-0_3 () Bool)
(declare-fun proj-0-1_4 () Bool)
(declare-fun proj-0-0_4 () Bool)
(declare-fun proj-0-1_5 () Bool)
(declare-fun proj-0-0_5 () Bool)
(declare-fun proj-0-1_6 () Bool)
(declare-fun proj-0-0_6 () Bool)
(declare-fun proj-0-1_7 () Bool)
(declare-fun proj-0-0_7 () Bool)
(declare-fun proj-0-1_8 () Bool)
(declare-fun proj-0-0_8 () Bool)
(declare-fun proj-0-1_9 () Bool)
(declare-fun proj-0-0_9 () Bool)
(declare-fun proj-0-1_10 () Bool)
(declare-fun proj-0-0_10 () Bool)
(declare-fun proj-0-1_11 () Bool)
(declare-fun proj-0-0_11 () Bool)
(declare-fun proj-0-1_12 () Bool)
(declare-fun proj-0-0_12 () Bool)
(declare-fun proj-0-1_13 () Bool)
(declare-fun proj-0-0_13 () Bool)
(assert
  (and
    (= x_0 0)
    (= y_0 0)
    (=> (and (< x_0 10) (< y_0 10) proj-0-0_0) (and (= x_1 (+ x_0 1)) (= y_1 y_0)))
    (=> (and (< x_0 10) (< y_0 10) proj-0-1_0) (and (= y_1 (+ y_0 1)) (= x_1 x_0)))
    (or (not proj-0-0_0) (not proj-0-1_0))
    (or proj-0-0_0 proj-0-1_0)
    (=> (and (< x_1 10) (< y_1 10) proj-0-0_1) (and (= x_2 (+ x_1 1)) (= y_2 y_1)))
    (=> (and (< x_1 10) (< y_1 10) proj-0-1_1) (and (= y_2 (+ y_1 1)) (= x_2 x_1)))
    (or (not proj-0-0_1) (not proj-0-1_1))
    (or proj-0-0_1 proj-0-1_1)
    (=> (and (< x_2 10) (< y_2 10) proj-0-0_2) (and (= x_3 (+ x_2 1)) (= y_3 y_2)))
    (=> (and (< x_2 10) (< y_2 10) proj-0-1_2) (and (= y_3 (+ y_2 1)) (= x_3 x_2)))
    (or (not proj-0-0_2) (not proj-0-1_2))
    (or proj-0-0_2 proj-0-1_2)
    (=> (and (< x_3 10) (< y_3 10) proj-0-0_3) (and (= x_4 (+ x_3 1)) (= y_4 y_3)))
    (=> (and (< x_3 10) (< y_3 10) proj-0-1_3) (and (= y_4 (+ y_3 1)) (= x_4 x_3)))
    (or (not proj-0-0_3) (not proj-0-1_3))
    (or proj-0-0_3 proj-0-1_3)
    (=> (and (< x_4 10) (< y_4 10) proj-0-0_4) (and (= x_5 (+ x_4 1)) (= y_5 y_4)))
    (=> (and (< x_4 10) (< y_4 10) proj-0-1_4) (and (= y_5 (+ y_4 1)) (= x_5 x_4)))
    (or (not proj-0-0_4) (not proj-0-1_4))
    (or proj-0-0_4 proj-0-1_4)
    (=> (and (< x_5 10) (< y_5 10) proj-0-0_5) (and (= x_6 (+ x_5 1)) (= y_6 y_5)))
    (=> (and (< x_5 10) (< y_5 10) proj-0-1_5) (and (= y_6 (+ y_5 1)) (= x_6 x_5)))
    (or (not proj-0-0_5) (not proj-0-1_5))
    (or proj-0-0_5 proj-0-1_5)
    (=> (and (< x_6 10) (< y_6 10) proj-0-0_6) (and (= x_7 (+ x_6 1)) (= y_7 y_6)))
    (=> (and (< x_6 10) (< y_6 10) proj-0-1_6) (and (= y_7 (+ y_6 1)) (= x_7 x_6)))
    (or (not proj-0-0_6) (not proj-0-1_6))
    (or proj-0-0_6 proj-0-1_6)
    (=> (and (< x_7 10) (< y_7 10) proj-0-0_7) (and (= x_8 (+ x_7 1)) (= y_8 y_7)))
    (=> (and (< x_7 10) (< y_7 10) proj-0-1_7) (and (= y_8 (+ y_7 1)) (= x_8 x_7)))
    (or (not proj-0-0_7) (not proj-0-1_7))
    (or proj-0-0_7 proj-0-1_7)
    (=> (and (< x_8 10) (< y_8 10) proj-0-0_8) (and (= x_9 (+ x_8 1)) (= y_9 y_8)))
    (=> (and (< x_8 10) (< y_8 10) proj-0-1_8) (and (= y_9 (+ y_8 1)) (= x_9 x_8)))
    (or (not proj-0-0_8) (not proj-0-1_8))
    (or proj-0-0_8 proj-0-1_8)
    (=> (and (< x_9 10) (< y_9 10) proj-0-0_9) (and (= x_10 (+ x_9 1)) (= y_10 y_9)))
    (=> (and (< x_9 10) (< y_9 10) proj-0-1_9) (and (= y_10 (+ y_9 1)) (= x_10 x_9)))
    (or (not proj-0-0_9) (not proj-0-1_9))
    (or proj-0-0_9 proj-0-1_9)
    (=> (and (< x_10 10) (< y_10 10) proj-0-0_10) (and (= x_11 (+ x_10 1)) (= y_11 y_10)))
    (=> (and (< x_10 10) (< y_10 10) proj-0-1_10) (and (= y_11 (+ y_10 1)) (= x_11 x_10)))
    (or (not proj-0-0_10) (not proj-0-1_10))
    (or proj-0-0_10 proj-0-1_10)
    (=> (and (< x_11 10) (< y_11 10) proj-0-0_11) (and (= x_12 (+ x_11 1)) (= y_12 y_11)))
    (=> (and (< x_11 10) (< y_11 10) proj-0-1_11) (and (= y_12 (+ y_11 1)) (= x_12 x_11)))
    (or (not proj-0-0_11) (not proj-0-1_11))
    (or proj-0-0_11 proj-0-1_11)
    (=> (and (< x_12 10) (< y_12 10) proj-0-0_12) (and (= x_13 (+ x_12 1)) (= y_13 y_12)))
    (=> (and (< x_12 10) (< y_12 10) proj-0-1_12) (and (= y_13 (+ y_12 1)) (= x_13 x_12)))
    (or (not proj-0-0_12) (not proj-0-1_12))
    (or proj-0-0_12 proj-0-1_12)
    (=> (and (< x_13 10) (< y_13 10) proj-0-0_13) (and (= x_14 (+ x_13 1)) (= y_14 y_13)))
    (=> (and (< x_13 10) (< y_13 10) proj-0-1_13) (and (= y_14 (+ y_13 1)) (= x_14 x_13)))
    (or (not proj-0-0_13) (not proj-0-1_13))
    (or proj-0-0_13 proj-0-1_13)
    (= target_0 (= x_0 10))
    (= target_1 (= x_1 10))
    (= target_2 (= x_2 10))
    (= target_3 (= x_3 10))
    (= target_4 (= x_4 10))
    (= target_5 (= x_5 10))
    (= target_6 (= x_6 10))
    (= target_7 (= x_7 10))
    (= target_8 (= x_8 10))
    (= target_9 (= x_9 10))
    (= target_10 (= x_10 10))
    (= target_11 (= x_11 10))
    (= target_12 (= x_12 10))
    (= target_13 (= x_13 10))
    (= target_14 (= x_14 10))
    (or target_0 target_1 target_2 target_3 target_4 target_5 target_6 target_7 target_8 target_9 target_10 target_11 target_12 target_13 target_14)
  )
)
(check-sat)